
  22   10
  10   10   10   10   10   10   10   10   10   10

   0   0   0   0   0   0   0   0   0   0   0   2 2 21 
  10  10  10  10  10  10  10  10  10  10  10   1 3 
   9  10  10  10  10  10  10  10  10  10  10   2 6 4 
   7  10  10  10  10  10  10  10  10  10  10   1 5 
   9  10  10  10  10  10  10  10  10  10  10   2 15 7 
   2  10  10  10  10  10  10  10  10  10  10   1 7 
   8  10  10  10  10  10  10  10  10  10  10   4 13 12 10 8 
   2  10  10  10  10  10  10  10  10  10  10   1 9 
   9  10  10  10  10  10  10  10  10  10  10   2 19 11 
   3  10  10  10  10  10  10  10  10  10  10   2 19 11 
   3  10  10  10  10  10  10  10  10  10  10   3 18 17 14 
  10  10  10  10  10  10  10  10  10  10  10   2 17 16 
   4  10  10  10  10  10  10  10  10  10  10   1 14 
   1  10  10  10  10  10  10  10  10  10  10   1 16 
   7  10  10  10  10  10  10  10  10  10  10   1 20 
   9  10  10  10  10  10  10  10  10  10  10   1 22
   2  10  10  10  10  10  10  10  10  10  10   1 22
   5  10  10  10  10  10  10  10  10  10  10   1 22
   7  10  10  10  10  10  10  10  10  10  10   1 22
   8  10  10  10  10  10  10  10  10  10  10   1 22
   2  10  10  10  10  10  10  10  10  10  10   1 22
   0   0   0   0   0   0   0   0   0   0   0   0 
